mapa = [|
         9,9,9,9,9,9|
         9,0,0,0,0,9|
         9,9,9,0,0,9|
         9,9,9,0,0,9|
         9,0,4,1,0,9|
         9,0,2,0,9,9|
         9,0,0,0,9,9|
         9,9,9,9,9,9|];
dimx = 8;
dimy = 6;
filav = 3;
colav = 5;
from = [1,2,3,4,5,7,8,9,10,11,13,14,15,16,17,19,20,21,22,23,25,26,27,28,29,31,32,33,34,35,37,38,39,40,41,1,2,3,4,5,7,8,9,10,11,13,14,15,16,17,19,20,21,22,23,25,26,27,28,29,31,32,33,34,35,37,38,39,40,41,6,12,18,24,30,36,42,43,44,45,46,47];
to = [2,3,4,5,6,8,9,10,11,12,14,15,16,17,18,20,21,22,23,24,26,27,28,29,30,32,33,34,35,36,38,39,40,41,42,7,8,9,10,11,13,14,15,16,17,19,20,21,22,23,25,26,27,28,29,31,32,33,34,35,37,38,39,40,41,43,44,45,46,47,12,18,24,30,36,42,48,44,45,46,47,48];
